%nproc=64
%mem=256GB
%chk=0000017.chk
#p opt freq b3lyp/6-31g* em=gd3bj

CC(C)C(C)C1C2CCC3CC3C21

0 1
C 1.9675 2.0129 2.3520
C 0.9014 2.4715 1.3499
C 1.5672 2.8470 0.0279
C -0.2777 1.4612 1.2338
C -1.4595 2.0354 0.4684
C 0.1372 0.0357 0.9668
C -0.5326 -1.0536 0.1372
C -1.5442 -0.9334 -0.9656
C -0.9706 -1.4238 -2.3045
C 0.2880 -0.7026 -2.7135
C 0.4173 0.7800 -2.5496
C 1.1786 -0.1305 -1.6217
C 0.8796 -0.5750 -0.1966
H 2.5098 1.1322 1.9929
H 1.5157 1.7685 3.3190
H 2.7024 2.8075 2.5217
H 0.4771 3.4012 1.7558
H 2.2535 3.6885 0.1782
H 0.8365 3.1604 -0.7221
H 2.1607 2.0241 -0.3753
H -0.6753 1.4069 2.2612
H -1.2527 2.1890 -0.5871
H -2.3411 1.3948 0.5693
H -1.7388 3.0132 0.8786
H 0.4929 -0.3435 1.9325
H -0.6032 -2.0374 0.5958
H -1.9133 0.0829 -1.0881
H -2.4201 -1.5416 -0.7098
H -0.7443 -2.4945 -2.2302
H -1.7248 -1.3065 -3.0907
H 0.7638 -1.1641 -3.5704
H -0.4378 1.3363 -2.2086
H 0.9900 1.3206 -3.2972
H 2.2509 -0.1426 -1.8335
H 1.6698 -1.2548 0.1449


--link1--
%nproc=64
%mem=256GB
%oldchk=0000017.chk
%chk=0000017_1.chk
#p m062x/def2tzvp geom=check em=gd3

CC(C)C(C)C1C2CCC3CC3C21

0 1


--link1--
%nproc=64
%mem=256GB
%oldchk=0000017.chk
%chk=0000017_2.chk
#p m062x/def2tzvp scrf=solvent=water geom=check em=gd3

CC(C)C(C)C1C2CCC3CC3C21

0 1


