%nproc=64
%mem=512GB
%chk=0000003.chk
#p opt freq b3lyp/6-31g* em=gd3bj

CCC1C2C3CC(C)C3(CC)C12

0 1
C -0.9816 3.2907 2.0140
C -0.0215 2.1401 1.7588
C -0.4861 1.2815 0.6220
C -0.1515 1.6526 -0.7879
C -0.5213 0.8572 -1.9790
C -1.7844 -0.0194 -2.0204
C -0.9444 -1.2521 -1.6284
C -1.4357 -2.0752 -0.4515
C 0.2916 -0.3336 -1.4028
C 1.5483 -0.7260 -2.1803
C 2.2254 -1.9288 -1.5423
C 0.5095 0.4640 -0.1526
H -0.6335 3.8990 2.8545
H -1.0629 3.9364 1.1334
H -1.9843 2.9202 2.2511
H 0.9789 2.5433 1.5614
H 0.0533 1.5236 2.6617
H -1.4577 0.8465 0.8237
H 0.4704 2.5064 -1.0220
H -0.1873 1.2357 -2.9499
H -2.5603 0.2676 -1.3027
H -2.2479 -0.0919 -3.0099
H -0.8108 -1.9200 -2.4923
H -0.6957 -2.8336 -0.1769
H -2.3650 -2.5933 -0.7096
H -1.6318 -1.4609 0.4313
H 1.2965 -0.9656 -3.2204
H 2.2565 0.1108 -2.2162
H 1.5642 -2.8011 -1.5426
H 2.5074 -1.7227 -0.5050
H 3.1321 -2.1911 -2.0962
H 1.5587 0.5381 0.1087


--link1--
%nproc=64
%mem=512GB
%oldchk=0000003.chk
%chk=0000003_1.chk
"#p m062x/def2tzvp geom=check em=gd3

CCC1C2C3CC(C)C3(CC)C12

0 1


--link1--
%nproc=64
%mem=512GB
%oldchk=0000003.chk
%chk=0000003_2.chk
#p m062x/def2tzvp scrf=solvent=water geom=check em=gd3"

CCC1C2C3CC(C)C3(CC)C12

0 1


