%nproc=64
%mem=256GB
%chk=0000005.chk
#p opt freq b3lyp/6-31g* em=gd3bj

CCCC1CC2C3CC1(CC)C23

0 1
C 1.2713 -1.7356 2.5460
C 0.7826 -0.2949 2.5416
C 1.2422 0.5135 1.3218
C 0.8347 -0.0204 -0.0613
C 1.7900 0.6350 -1.1486
C 0.9020 1.4559 -2.0436
C -0.2598 0.6996 -2.6300
C -0.9457 -0.4136 -1.9172
C -0.6195 0.3500 -0.5550
C -1.8013 0.2618 0.4040
C -2.0235 1.5110 1.2436
C -0.4422 1.5443 -1.4224
H 2.3549 -1.7859 2.4003
H 1.0373 -2.2072 3.5060
H 0.7857 -2.3263 1.7642
H -0.3032 -0.2853 2.6481
H 1.1754 0.2009 3.4383
H 2.3397 0.5329 1.3749
H 0.9278 1.5568 1.4310
H 0.9739 -1.1061 -0.0953
H 2.5649 1.2650 -0.7003
H 2.2886 -0.1498 -1.7286
H 1.3493 2.2815 -2.5683
H -0.7366 1.0035 -3.5499
H -0.4839 -1.4001 -2.0253
H -2.0065 -0.5015 -2.1815
H -1.7101 -0.6244 1.0398
H -2.7306 0.1111 -0.1608
H -2.8832 1.3631 1.9058
H -1.1681 1.7637 1.8697
H -2.2415 2.3792 0.6143
H -1.1584 2.3431 -1.4555


--link1--
%nproc=64
%mem=256GB
%oldchk=0000005.chk
%chk=0000005_1.chk
#p m062x/def2tzvp geom=check em=gd3

CCCC1CC2C3CC1(CC)C23

0 1


--link1--
%nproc=64
%mem=256GB
%oldchk=0000005.chk
%chk=0000005_2.chk
#p m062x/def2tzvp scrf=solvent=water geom=check em=gd3

CCCC1CC2C3CC1(CC)C23

0 1


