%nproc=64
%mem=256GB
%chk=0000014.chk
#p opt freq b3lyp/6-31g* em=gd3bj

CCC12C(C)CCC1CC1CC12

0 1
C 0.8583 2.1578 0.8005
C 1.0894 1.2857 -0.4306
C 0.4753 -0.1402 -0.3579
C -1.0669 -0.1886 -0.2386
C -1.8136 0.8948 -1.0285
C -1.4443 -1.5608 -0.8098
C -0.4188 -1.8566 -1.9035
C 0.7781 -0.9193 -1.6713
C 2.1216 -1.6333 -1.4346
C 2.2662 -1.7570 0.0551
C 1.2351 -2.4556 0.8835
C 1.2012 -0.9455 0.7278
H -0.1942 2.1981 1.0906
H 1.1888 3.1815 0.5948
H 1.4339 1.8016 1.6594
H 0.6975 1.8145 -1.3079
H 2.1735 1.2143 -0.5894
H -1.3806 -0.1250 0.8102
H -2.8954 0.7272 -0.9783
H -1.6306 1.8931 -0.6233
H -1.5269 0.8995 -2.0854
H -1.3996 -2.3203 -0.0235
H -2.4661 -1.5961 -1.2034
H -0.8599 -1.6359 -2.8834
H -0.1459 -2.9166 -1.9172
H 0.8610 -0.2552 -2.5407
H 2.9388 -1.0104 -1.8165
H 2.1783 -2.6054 -1.9336
H 3.2857 -1.7088 0.4100
H 1.5462 -2.8482 1.8472
H 0.5354 -3.1057 0.3810
H 1.4361 -0.3827 1.6209


--link1--
%nproc=64
%mem=256GB
%oldchk=0000014.chk
%chk=0000014_1.chk
#p m062x/def2tzvp geom=check em=gd3

CCC12C(C)CCC1CC1CC12

0 1


--link1--
%nproc=64
%mem=256GB
%oldchk=0000014.chk
%chk=0000014_2.chk
#p m062x/def2tzvp scrf=solvent=water geom=check em=gd3

CCC12C(C)CCC1CC1CC12

0 1


