%nproc=64
%mem=256GB
%chk=0000008.chk
#p opt freq b3lyp/6-31g* em=gd3bj

CCCC1CC2C3CCC2C1C3

0 1
C 3.6265 0.0536 0.1151
C 2.6680 0.9159 -0.6914
C 1.3797 1.2637 0.0584
C 0.5267 0.0568 0.4610
C -0.8495 0.4528 1.0353
C -1.8003 -0.5889 0.4331
C -2.1314 -0.3415 -1.0556
C -2.7292 -1.6939 -1.4614
C -1.7793 -2.6874 -0.7822
C -0.9156 -1.7994 0.1182
C 0.1270 -0.9434 -0.6454
C -0.7390 -0.2378 -1.7083
H 4.5637 -0.0807 -0.4346
H 3.2097 -0.9396 0.3061
H 3.8618 0.5214 1.0762
H 2.4331 0.4159 -1.6376
H 3.1779 1.8511 -0.9525
H 1.6364 1.8263 0.9656
H 0.7990 1.9577 -0.5598
H 1.0707 -0.4940 1.2413
H -0.8292 0.3758 2.1280
H -1.1557 1.4698 0.7692
H -2.6788 -0.7988 1.0500
H -2.7824 0.5102 -1.2625
H -2.7711 -1.8388 -2.5453
H -3.7445 -1.8036 -1.0629
H -1.1724 -3.2393 -1.5070
H -2.3538 -3.4094 -0.1922
H -0.5067 -2.3197 0.9893
H 0.9638 -1.5084 -1.0615
H -0.4505 0.8008 -1.8844
H -0.6956 -0.7559 -2.6728


--link1--
%nproc=64
%mem=256GB
%oldchk=0000008.chk
%chk=0000008_1.chk
#p m062x/def2tzvp geom=check em=gd3

CCCC1CC2C3CCC2C1C3

0 1


--link1--
%nproc=64
%mem=256GB
%oldchk=0000008.chk
%chk=0000008_2.chk
#p m062x/def2tzvp scrf=solvent=water geom=check em=gd3

CCCC1CC2C3CCC2C1C3

0 1


