%nproc=64
%mem=256GB
%chk=0000015.chk
#p opt freq b3lyp/6-31g* em=gd3bj

C1CC(C2CCC3CC32)C1

0 1
C -0.7179 -1.1114 2.8880
C -1.9397 -0.4044 2.2722
C -0.9554 0.5354 1.5245
C -0.5952 0.1275 0.0970
C -1.7757 0.4103 -0.8805
C -1.1002 1.0065 -2.1446
C 0.3112 0.5586 -1.9904
C 1.6394 0.9101 -1.4093
C 0.4788 0.9815 -0.4989
C 0.0877 0.1727 2.6160
H -0.3735 -1.9796 2.3149
H -0.8148 -1.3968 3.9385
H -2.5846 -1.0335 1.6530
H -2.5612 0.1153 3.0111
H -1.2634 1.5886 1.5744
H -0.3116 -0.9323 0.0516
H -2.2942 -0.5264 -1.1148
H -2.5166 1.1102 -0.4794
H -1.1811 2.0997 -2.1624
H -1.5636 0.6153 -3.0558
H 0.3232 -0.4941 -2.2903
H 2.3590 0.1134 -1.2522
H 2.0997 1.8392 -1.7290
H 0.2920 2.0181 -0.2034
H 0.0937 0.8710 3.4614
H 1.1171 0.0201 2.2810


--link1--
%nproc=64
%mem=256GB
%oldchk=0000015.chk
%chk=0000015_1.chk
#p m062x/def2tzvp geom=check em=gd3

C1CC(C2CCC3CC32)C1

0 1


--link1--
%nproc=64
%mem=256GB
%oldchk=0000015.chk
%chk=0000015_2.chk
#p m062x/def2tzvp scrf=solvent=water geom=check em=gd3

C1CC(C2CCC3CC32)C1

0 1


