%nproc=64
%mem=256GB
%chk=0000010.chk
#p opt freq b3lyp/6-31g* em=gd3bj

CCC12C(C)CC3CCC1C2C3

0 1
C 3.1170 -0.7266 -2.6125
C 1.7308 -0.1684 -2.9059
C 0.9162 0.0756 -1.6397
C 0.4505 -1.1708 -0.8558
C 0.1206 -2.3735 -1.7518
C -0.7697 -0.9286 0.0695
C -1.0529 0.5262 0.4547
C 0.0398 1.1425 1.3352
C 1.4104 1.2301 0.6680
C 1.3605 1.2982 -0.8290
C 0.0627 1.3325 -1.5893
C -1.2137 1.3502 -0.8222
H 3.0682 -1.6809 -2.0808
H 3.6979 -0.0338 -1.9952
H 3.6644 -0.8868 -3.5467
H 1.8563 0.7730 -3.4567
H 1.1903 -0.8330 -3.5878
H 1.2917 -1.4778 -0.2203
H -0.6426 -2.1149 -2.4940
H -0.2542 -3.2125 -1.1547
H 1.0015 -2.7374 -2.2880
H -0.6520 -1.5360 0.9764
H -1.6768 -1.3120 -0.4190
H -1.9970 0.5569 1.0131
H 0.1278 0.5901 2.2785
H -0.2755 2.1579 1.6109
H 1.9312 2.1155 1.0528
H 2.0266 0.3744 0.9683
H 2.1842 1.8896 -1.2170
H 0.0066 1.9567 -2.4739
H -2.0227 0.9468 -1.4424
H -1.4810 2.3847 -0.5767


--link1--
%nproc=64
%mem=256GB
%oldchk=0000010.chk
%chk=0000010_1.chk
#p m062x/def2tzvp geom=check em=gd3

CCC12C(C)CC3CCC1C2C3

0 1


--link1--
%nproc=64
%mem=256GB
%oldchk=0000010.chk
%chk=0000010_2.chk
#p m062x/def2tzvp scrf=solvent=water geom=check em=gd3

CCC12C(C)CC3CCC1C2C3

0 1


