%nproc=64
%mem=512GB
%chk=0000012.chk
#p opt freq b3lyp/6-31g* em=gd3bj

CCCC1C2CC3CCC(C3)C12

0 1
C 0.7713 -0.5341 -2.6545
C 0.9670 -1.6256 -1.6123
C 1.4595 -1.0943 -0.2649
C 0.4304 -0.2619 0.4446
C -0.7167 -0.9268 1.1610
C -2.0978 -0.3215 1.1701
C -2.2328 0.9113 2.0882
C -1.5922 2.1684 1.4726
C -0.1674 2.2267 2.0404
C -0.0006 0.9212 2.8221
C -1.4159 0.7020 3.3657
C 0.3872 -0.2653 1.9648
H 0.5033 -0.9791 -3.6182
H 1.6889 0.0462 -2.7932
H -0.0327 0.1516 -2.3711
H 1.7049 -2.3404 -1.9953
H 0.0267 -2.1739 -1.4829
H 1.7440 -1.9507 0.3593
H 2.3670 -0.4958 -0.4070
H 0.2327 0.6549 -0.0935
H -0.7566 -2.0110 1.1463
H -2.7892 -1.0901 1.5390
H -2.4139 -0.0852 0.1477
H -3.2927 1.0873 2.3005
H -2.1420 3.0647 1.7836
H -1.5988 2.1505 0.3781
H 0.5897 2.3796 1.2662
H -0.0955 3.0789 2.7281
H 0.7286 1.0397 3.6303
H -1.6681 1.4598 4.1172
H -1.5631 -0.2885 3.8088
H 1.0592 -0.9299 2.4993


--link1--
%nproc=64
%mem=512GB
%oldchk=0000012.chk
%chk=0000012_1.chk
"#p m062x/def2tzvp geom=check em=gd3

CCCC1C2CC3CCC(C3)C12

0 1


--link1--
%nproc=64
%mem=512GB
%oldchk=0000012.chk
%chk=0000012_2.chk
#p m062x/def2tzvp scrf=solvent=water geom=check em=gd3"

CCCC1C2CC3CCC(C3)C12

0 1


