%nproc=128
%mem=1024GB
%chk=00000098.chk
#p opt freq b3lyp/6-31g* em=gd3bj

CCC12CCC1(CC)C1CCC12

0 1
C -2.9834 1.4831 0.0259
C -1.9078 0.6151 -0.6088
C -0.7835 0.3413 0.3755
C 0.1591 1.5096 0.7121
C 1.3775 0.6048 0.4846
C 0.4488 -0.5128 -0.0505
C 0.6328 -0.9267 -1.4999
C 1.8891 -1.7681 -1.6632
C -0.0158 -1.6067 0.9310
C 0.6334 -1.7056 2.3074
C -0.3129 -0.6120 2.8270
C -1.0877 -0.6674 1.5028
H -3.4191 0.9969 0.9044
H -2.5761 2.4479 0.3449
H -3.7880 1.6742 -0.6910
H -2.3590 -0.3251 -0.9471
H -1.5226 1.1220 -1.5012
H 0.0597 1.9519 1.7064
H 0.1141 2.3354 -0.0094
H 1.9635 0.3927 1.3813
H 2.0759 1.0131 -0.2559
H 0.7051 -0.0438 -2.1457
H -0.2308 -1.5054 -1.8478
H 1.8368 -2.6787 -1.0578
H 2.7810 -1.2130 -1.3558
H 2.0152 -2.0622 -2.7098
H -0.3943 -2.5360 0.4965
H 1.7037 -1.4949 2.3662
H 0.4652 -2.6773 2.7878
H -0.9053 -0.9258 3.6942
H 0.1762 0.3263 3.0954
H -2.0916 -1.0981 1.5489


--link1--
%nproc=128
%mem=1024GB
%oldchk=00000098.chk
%chk=00000098_1.chk
#p m062x/def2tzvp geom=check em=gd3

CCC12CCC1(CC)C1CCC12

0 1


--link1--
%nproc=128
%mem=1024GB
%oldchk=00000098.chk
%chk=00000098_2.chk
#p m062x/def2tzvp scrf=solvent=water geom=check em=gd3

CCC12CCC1(CC)C1CCC12

0 1


