%nproc=128
%mem=1024GB
%chk=00000081.chk
#p opt freq b3lyp/6-31g* em=gd3bj

CC(CCC1C2CC12)C1CCC1

0 1
C -0.6964 -0.2192 1.3355
C -0.1800 -0.9120 0.0744
C -0.2110 0.0293 -1.1513
C -1.5915 0.5689 -1.5414
C -2.5664 -0.5186 -1.8958
C -2.3688 -1.4411 -3.0501
C -2.5226 -0.4848 -4.1730
C -3.4953 -0.3917 -3.0540
C 1.2524 -1.4479 0.2373
C 1.6094 -2.4009 1.4150
C 3.0291 -1.7957 1.3721
C 2.3958 -0.5294 0.7574
H -0.6210 -0.8669 2.2130
H -1.7534 0.0458 1.2337
H -0.1424 0.7004 1.5480
H -0.8295 -1.7731 -0.1260
H 0.2147 -0.4969 -2.0158
H 0.4515 0.8846 -0.9649
H -1.4623 1.2717 -2.3724
H -2.0107 1.1674 -0.7247
H -2.9783 -0.9574 -0.9908
H -2.7301 -2.4581 -3.0726
H -1.7818 0.2941 -4.3113
H -2.8796 -0.8718 -5.1226
H -4.4838 -0.8251 -3.0798
H 1.5433 -1.9249 -0.7145
H 1.5464 -3.4694 1.1920
H 1.0915 -2.2094 2.3597
H 3.7127 -2.3207 0.6950
H 3.5187 -1.6612 2.3397
H 2.9900 -0.0321 -0.0138
H 2.0997 0.2114 1.5073


--link1--
%nproc=128
%mem=1024GB
%oldchk=00000081.chk
%chk=00000081_1.chk
#p m062x/def2tzvp geom=check em=gd3

CC(CCC1C2CC12)C1CCC1

0 1


--link1--
%nproc=128
%mem=1024GB
%oldchk=00000081.chk
%chk=00000081_2.chk
#p m062x/def2tzvp scrf=solvent=water geom=check em=gd3

CC(CCC1C2CC12)C1CCC1

0 1


