%nproc=128
%mem=1024GB
%chk=00000061.chk
#p opt freq b3lyp/6-31g* em=gd3bj

CCC(C1CCC1)C(C)C1C2CC21

0 1
C 2.1417 -0.3953 -1.9602
C 1.6766 -0.3976 -0.5067
C 0.1312 -0.4229 -0.3868
C -0.4022 -1.8620 -0.2074
C -0.0504 -2.6834 1.0703
C -0.1879 -3.9504 0.2002
C 0.1713 -3.0679 -1.0138
C -0.3630 0.4925 0.7815
C -1.8690 0.3942 1.0717
C 0.0745 1.9485 0.6390
C 0.3163 2.6358 -0.6665
C -1.0691 2.7348 -1.1812
C -0.8426 3.0625 0.2473
H 1.8081 0.5134 -2.4719
H 1.7593 -1.2547 -2.5163
H 3.2351 -0.4217 -2.0047
H 2.1344 -1.2444 0.0139
H 2.0981 0.4971 -0.0366
H -0.2919 -0.0392 -1.3230
H -1.4942 -1.8298 -0.3602
H -0.7607 -2.6067 1.8976
H 0.9604 -2.5276 1.4619
H -1.2059 -4.3554 0.1667
H 0.5110 -4.7599 0.4246
H -0.3521 -3.3065 -1.9433
H 1.2477 -3.0513 -1.2090
H 0.1291 0.1260 1.6946
H -2.4713 0.5606 0.1743
H -2.1355 -0.5885 1.4722
H -2.1718 1.1318 1.8233
H 0.7845 2.1813 1.4314
H 1.0629 3.4030 -0.8058
H -1.6037 1.8336 -1.4520
H -1.3003 3.5529 -1.8568
H -0.7484 4.0707 0.6219


--link1--
%nproc=128
%mem=1024GB
%oldchk=00000061.chk
%chk=00000061_1.chk
#p m062x/def2tzvp geom=check em=gd3

CCC(C1CCC1)C(C)C1C2CC21

0 1


--link1--
%nproc=128
%mem=1024GB
%oldchk=00000061.chk
%chk=00000061_2.chk
#p m062x/def2tzvp scrf=solvent=water geom=check em=gd3

CCC(C1CCC1)C(C)C1C2CC21

0 1


