%nproc=128
%mem=1024GB
%chk=00000004.chk
#p opt freq b3lyp/6-31g* em=gd3bj

CCC1C2CC1(CC(C)C1CC1)C2

0 1
C 1.8882 -3.1838 0.0951
C 2.7294 -2.4083 -0.9068
C 2.8781 -0.9540 -0.4687
C 3.5789 0.0848 -1.4222
C 2.2238 0.1706 -2.2015
C 1.7469 0.1568 -0.6926
C 0.3965 0.1547 -0.0649
C -0.3505 1.4923 -0.2321
C -1.5539 1.5254 0.7149
C -0.7011 1.7675 -1.6796
C -2.0598 2.2305 -2.1564
C -1.5932 0.8368 -2.4655
C 2.9457 1.1764 -0.4809
H 0.8723 -2.7829 0.1538
H 1.8213 -4.2358 -0.1995
H 2.3260 -3.1377 1.0975
H 2.2783 -2.5075 -1.8975
H 3.7228 -2.8684 -0.9650
H 3.3039 -0.9583 0.5481
H 4.5834 0.0641 -1.8153
H 2.0624 1.0894 -2.7756
H 1.9388 -0.6730 -2.8336
H -0.2040 -0.6673 -0.4708
H 0.5142 -0.0507 1.0065
H 0.3184 2.3019 0.0889
H -1.2395 1.3543 1.7503
H -2.2926 0.7590 0.4577
H -2.0498 2.5013 0.6856
H 0.1471 2.1993 -2.2030
H -2.0895 2.9460 -2.9718
H -2.8834 2.3388 -1.4624
H -2.0849 0.0174 -1.9541
H -1.3083 0.6087 -3.4866
H 3.3556 1.2628 0.5310
H 2.8230 2.1812 -0.8994


--link1--
%nproc=128
%mem=1024GB
%oldchk=00000004.chk
%chk=00000004_1.chk
#p m062x/def2tzvp geom=check em=gd3

CCC1C2CC1(CC(C)C1CC1)C2

0 1


--link1--
%nproc=128
%mem=1024GB
%oldchk=00000004.chk
%chk=00000004_2.chk
#p m062x/def2tzvp scrf=solvent=water geom=check em=gd3

CCC1C2CC1(CC(C)C1CC1)C2

0 1


