%nproc=128
%mem=1024GB
%chk=00000016.chk
#p opt freq b3lyp/6-31g* em=gd3bj

CC(C)C1CC2(CC2)C1CC1CC1

0 1
C 2.7393 -1.7896 -0.8243
C 1.6897 -1.6667 0.2776
C 1.9761 -0.4396 1.1450
C 0.2440 -1.5946 -0.2512
C -0.2550 -2.7207 -1.1848
C -0.2273 -1.7188 -2.2747
C 0.5214 -1.8616 -3.5671
C -0.9806 -1.7966 -3.5655
C -0.1378 -0.5511 -1.3464
C -1.4320 0.2369 -1.1220
C -1.2554 1.2983 -0.0740
C -1.6305 1.0408 1.3622
C -2.4695 1.9624 0.5222
H 2.7332 -0.9247 -1.4947
H 3.7427 -1.8632 -0.3906
H 2.5808 -2.6867 -1.4300
H 1.7720 -2.5543 0.9181
H 1.2547 -0.3651 1.9657
H 2.9778 -0.4974 1.5835
H 1.9133 0.4862 0.5635
H -0.4131 -1.5376 0.6303
H 0.4040 -3.5870 -1.2862
H -1.2621 -3.0811 -0.9446
H 1.0646 -1.0031 -3.9450
H 0.9867 -2.8148 -3.7900
H -1.5266 -2.7067 -3.7865
H -1.4439 -0.8979 -3.9555
H 0.6769 0.1315 -1.6208
H -2.2553 -0.4383 -0.8570
H -1.7181 0.7338 -2.0567
H -0.4007 1.9361 -0.2743
H -2.0534 0.0794 1.6303
H -1.0080 1.4800 2.1336
H -2.4167 3.0257 0.7274
H -3.4523 1.6188 0.2200


--link1--
%nproc=128
%mem=1024GB
%oldchk=00000016.chk
%chk=00000016_1.chk
#p m062x/def2tzvp geom=check em=gd3

CC(C)C1CC2(CC2)C1CC1CC1

0 1


--link1--
%nproc=128
%mem=1024GB
%oldchk=00000016.chk
%chk=00000016_2.chk
#p m062x/def2tzvp scrf=solvent=water geom=check em=gd3

CC(C)C1CC2(CC2)C1CC1CC1

0 1


