%nproc=128
%mem=1024GB
%chk=00000047.chk
#p opt freq b3lyp/6-31g* em=gd3bj

CC(C)C1CC2C(CC3CC3)CC12

0 1
C 2.8037 -2.3405 0.5728
C 1.8254 -2.1398 -0.5871
C 0.4357 -2.6078 -0.1781
C 1.8930 -0.6830 -1.0613
C 1.0098 -0.1596 -2.2249
C 1.0896 1.2372 -1.5649
C -0.1894 1.7798 -0.8963
C -1.4501 1.8300 -1.7519
C -2.6731 2.4105 -1.0950
C -3.3688 1.6692 0.0195
C -2.7092 2.9900 0.2992
C -0.0377 0.6706 0.1764
C 1.4445 0.5397 -0.2270
H 2.5336 -1.7184 1.4331
H 2.8154 -3.3860 0.8981
H 3.8229 -2.0700 0.2764
H 2.1558 -2.7775 -1.4174
H -0.3022 -2.4270 -0.9645
H 0.0960 -2.1165 0.7385
H 0.4423 -3.6855 0.0212
H 2.9515 -0.5321 -1.3459
H 0.0141 -0.6056 -2.2956
H 1.4778 -0.2266 -3.2122
H 1.8249 1.9423 -1.9574
H 0.0207 2.7785 -0.4833
H -1.2349 2.4449 -2.6352
H -1.7081 0.8352 -2.1318
H -3.3223 2.8652 -1.8391
H -2.9120 0.7754 0.4263
H -4.4528 1.6365 0.0055
H -3.3494 3.8494 0.4693
H -1.8229 2.9869 0.9203
H -0.1991 1.0075 1.2050
H -0.6770 -0.1970 0.0004
H 2.1813 1.0461 0.3999


--link1--
%nproc=128
%mem=1024GB
%oldchk=00000047.chk
%chk=00000047_1.chk
#p m062x/def2tzvp geom=check em=gd3

CC(C)C1CC2C(CC3CC3)CC12

0 1


--link1--
%nproc=128
%mem=1024GB
%oldchk=00000047.chk
%chk=00000047_2.chk
#p m062x/def2tzvp scrf=solvent=water geom=check em=gd3

CC(C)C1CC2C(CC3CC3)CC12

0 1


