%nproc=128
%mem=1024GB
%chk=00000021.chk
#p opt freq b3lyp/6-31g* em=gd3bj

CC(C)C1CCCC1CC1C2CC12

0 1
C 1.2431 0.2601 -2.1885
C 1.0358 -1.2478 -2.0209
C 2.1597 -1.9746 -2.7744
C 0.9753 -1.6972 -0.5349
C 0.5658 -3.1829 -0.3957
C -0.7717 -3.1903 0.3266
C -0.6868 -1.9811 1.2327
C -0.0496 -0.9153 0.3339
C 0.5909 0.2156 1.1554
C -0.4355 1.0276 1.8982
C -0.2724 2.4917 2.1198
C -0.4546 2.9859 0.7316
C -1.3919 1.9427 1.2140
H 1.3294 0.5245 -3.2483
H 0.3981 0.8282 -1.7895
H 2.1569 0.5938 -1.6859
H 0.0841 -1.5064 -2.5036
H 3.1365 -1.7593 -2.3275
H 2.0206 -3.0591 -2.7729
H 2.1923 -1.6563 -3.8222
H 1.9797 -1.5828 -0.1039
H 1.3144 -3.7049 0.2132
H 0.4876 -3.7193 -1.3452
H -1.5901 -3.0698 -0.3931
H -0.9385 -4.1180 0.8814
H -0.0518 -2.2027 2.0990
H -1.6726 -1.6793 1.5998
H -0.8369 -0.5040 -0.3118
H 1.2026 0.8494 0.5082
H 1.2887 -0.2079 1.8894
H -0.8260 0.4561 2.7363
H -0.6418 3.0087 2.9928
H 0.2753 2.7369 -0.0293
H -0.8416 3.9919 0.5997
H -2.3847 2.1530 1.5825


--link1--
%nproc=128
%mem=1024GB
%oldchk=00000021.chk
%chk=00000021_1.chk
#p m062x/def2tzvp geom=check em=gd3

CC(C)C1CCCC1CC1C2CC12

0 1


--link1--
%nproc=128
%mem=1024GB
%oldchk=00000021.chk
%chk=00000021_2.chk
#p m062x/def2tzvp scrf=solvent=water geom=check em=gd3

CC(C)C1CCCC1CC1C2CC12

0 1


