%nproc=128
%mem=1024GB
%chk=00000000.chk
#p opt freq b3lyp/6-31g* em=gd3bj

CCC(C)C1C2CC3(CC)C(C)C213

0 1
C -2.6410 0.2686 -1.9372
C -2.6153 1.3977 -0.9147
C -2.0554 1.0063 0.4694
C -2.9363 -0.0465 1.1482
C -0.5928 0.6344 0.3733
C 0.1868 0.1060 1.6061
C 1.5754 -0.4636 1.6938
C 1.3520 -0.9509 0.2897
C 2.1623 -0.2644 -0.7880
C 3.5001 -0.9623 -0.9772
C 0.3490 -1.9508 -0.1807
C 0.2389 -3.2723 0.4983
C -0.1490 -0.7557 0.4816
H -3.2840 -0.5545 -1.6130
H -1.6381 -0.1257 -2.1247
H -3.0346 0.6391 -2.8895
H -3.6350 1.7842 -0.7940
H -2.0188 2.2220 -1.3256
H -2.1036 1.9108 1.0908
H -3.9835 0.2743 1.1601
H -2.6328 -0.2028 2.1884
H -2.8856 -1.0163 0.6430
H -0.0520 1.3288 -0.2605
H -0.3324 -0.0243 2.5458
H 2.3577 0.2878 1.8359
H 1.7055 -1.2557 2.4390
H 2.3382 0.7863 -0.5283
H 1.6221 -0.2633 -1.7426
H 3.3582 -2.0085 -1.2679
H 4.0852 -0.9483 -0.0518
H 4.0828 -0.4650 -1.7586
H 0.1507 -2.0481 -1.2420
H -0.7465 -3.7104 0.3096
H 0.3729 -3.1994 1.5824
H 0.9962 -3.9591 0.1076


--link1--
%nproc=128
%mem=1024GB
%oldchk=00000000.chk
%chk=00000000_1.chk
#p m062x/def2tzvp geom=check em=gd3

CCC(C)C1C2CC3(CC)C(C)C213

0 1


--link1--
%nproc=128
%mem=1024GB
%oldchk=00000000.chk
%chk=00000000_2.chk
#p m062x/def2tzvp scrf=solvent=water geom=check em=gd3

CCC(C)C1C2CC3(CC)C(C)C213

0 1


