%nproc=128
%mem=1024GB
%chk=00000082.chk
#p opt freq b3lyp/6-31g* em=gd3bj

CC(C)C1CC2CC2(CC2CC2)C1

0 1
C -1.2885 1.1734 -4.7093
C -0.9768 1.5049 -3.2457
C -2.1996 2.1695 -2.6069
C -0.4532 0.2556 -2.5066
C -1.4516 -0.9110 -2.3488
C -0.9598 -1.6888 -1.1609
C 0.4870 -2.0795 -1.0048
C -0.0458 -0.8172 -0.3540
C -0.1813 -0.7756 1.1488
C 1.0767 -0.3009 1.8164
C 2.2025 -1.2596 2.1059
C 1.3782 -0.7074 3.2360
C 0.0640 0.5153 -1.0723
H -2.1195 0.4653 -4.7935
H -1.5624 2.0789 -5.2614
H -0.4157 0.7353 -5.2049
H -0.1669 2.2467 -3.2450
H -2.4663 3.0790 -3.1574
H -3.0763 1.5153 -2.6197
H -2.0091 2.4679 -1.5730
H 0.4024 -0.1264 -3.0836
H -2.4656 -0.5577 -2.1416
H -1.4819 -1.5361 -3.2467
H -1.7188 -2.2882 -0.6785
H 1.1561 -1.9911 -1.8525
H 0.7110 -2.9329 -0.3734
H -1.0023 -0.1009 1.4201
H -0.4614 -1.7664 1.5297
H 1.3351 0.7128 1.5303
H 2.0750 -2.3048 1.8489
H 3.2171 -0.8961 1.9891
H 1.8377 0.0278 3.8870
H 0.6966 -1.3816 3.7420
H -0.5427 1.2615 -0.5519
H 1.0994 0.8716 -1.0902


--link1--
%nproc=128
%mem=1024GB
%oldchk=00000082.chk
%chk=00000082_1.chk
#p m062x/def2tzvp geom=check em=gd3

CC(C)C1CC2CC2(CC2CC2)C1

0 1


--link1--
%nproc=128
%mem=1024GB
%oldchk=00000082.chk
%chk=00000082_2.chk
#p m062x/def2tzvp scrf=solvent=water geom=check em=gd3

CC(C)C1CC2CC2(CC2CC2)C1

0 1


