%nproc=128
%mem=1024GB
%chk=00000087.chk
#p opt freq b3lyp/6-31g* em=gd3bj

CC(CCC1CC1)C1C2CCCC21

0 1
C 1.9900 0.7389 -0.0752
C 0.7470 1.0078 -0.9212
C 0.0584 -0.2619 -1.4592
C -0.3910 -1.3422 -0.4690
C 0.7213 -2.2223 0.0277
C 0.3745 -3.4026 0.9025
C 1.1149 -2.2354 1.4838
C -0.1396 2.0417 -0.2588
C -0.7498 1.8203 1.1064
C -1.0819 2.9748 2.0090
C -2.4809 3.4074 1.5574
C -2.5167 3.1128 0.0540
C -1.6379 1.9032 -0.1005
H 2.6545 0.0197 -0.5641
H 2.5561 1.6657 0.0738
H 1.7342 0.3650 0.9190
H 1.1154 1.5119 -1.8275
H -0.8195 0.0484 -2.0409
H 0.7360 -0.7275 -2.1882
H -0.9562 -0.9157 0.3627
H -1.0944 -1.9940 -1.0040
H 1.4884 -2.3954 -0.7193
H -0.6584 -3.5456 1.1995
H 0.9217 -4.3259 0.7487
H 2.1648 -2.3646 1.7215
H 0.5827 -1.5920 2.1752
H 0.2513 3.0384 -0.4549
H -0.6426 0.8781 1.6211
H -0.3605 3.7885 1.8751
H -1.0804 2.6827 3.0635
H -2.6946 4.4548 1.7882
H -3.2318 2.7887 2.0648
H -2.1141 3.9566 -0.5173
H -3.5387 2.9219 -0.2870
H -2.1713 1.0159 -0.4051


--link1--
%nproc=128
%mem=1024GB
%oldchk=00000087.chk
%chk=00000087_1.chk
#p m062x/def2tzvp geom=check em=gd3

CC(CCC1CC1)C1C2CCCC21

0 1


--link1--
%nproc=128
%mem=1024GB
%oldchk=00000087.chk
%chk=00000087_2.chk
#p m062x/def2tzvp scrf=solvent=water geom=check em=gd3

CC(CCC1CC1)C1C2CCCC21

0 1


