%nproc=128
%mem=1024GB
%chk=00000066.chk
#p opt freq b3lyp/6-31g* em=gd3bj

CC(C)CC1C(C(C)C)C12C1CC12

0 1
C 1.4688 3.7996 0.8306
C 0.6737 2.7014 0.1206
C 0.8314 2.8506 -1.3943
C 1.1321 1.3183 0.6173
C 0.2235 0.2081 0.1735
C 0.1310 -1.0760 1.0261
C 0.1220 -2.4527 0.4060
C -0.7206 -2.6081 -0.8591
C 1.5612 -2.8937 0.1217
C -0.9856 -0.1257 0.9329
C -1.8133 0.5505 1.9197
C -2.8518 -0.5084 2.0557
C -2.4116 -0.1632 0.6755
H 1.1385 4.7920 0.5057
H 1.3289 3.7421 1.9153
H 2.5405 3.7131 0.6212
H -0.3862 2.8406 0.3662
H 0.5463 3.8582 -1.7161
H 0.1919 2.1453 -1.9333
H 1.8674 2.6781 -1.7051
H 1.1877 1.3293 1.7136
H 2.1470 1.1074 0.2583
H 0.2043 0.0975 -0.9024
H 0.6682 -1.0877 1.9711
H -0.2915 -3.1373 1.1579
H -0.6728 -3.6392 -1.2269
H -1.7741 -2.3855 -0.6696
H -0.3745 -1.9554 -1.6664
H 2.1686 -2.8552 1.0327
H 1.5902 -3.9205 -0.2577
H 2.0357 -2.2411 -0.6195
H -2.0194 1.6090 1.9285
H -2.5614 -1.4708 2.4672
H -3.8480 -0.2085 2.3625
H -2.9337 0.5160 0.0204


--link1--
%nproc=128
%mem=1024GB
%oldchk=00000066.chk
%chk=00000066_1.chk
#p m062x/def2tzvp geom=check em=gd3

CC(C)CC1C(C(C)C)C12C1CC12

0 1


--link1--
%nproc=128
%mem=1024GB
%oldchk=00000066.chk
%chk=00000066_2.chk
#p m062x/def2tzvp scrf=solvent=water geom=check em=gd3

CC(C)CC1C(C(C)C)C12C1CC12

0 1


