%nproc=128
%mem=1024GB
%chk=00000095.chk
#p opt freq b3lyp/6-31g* em=gd3bj

CCC1(CC(C)C2C3CC32)CCC1

0 1
C -3.5502 1.0799 -0.4506
C -2.0553 1.0550 -0.7338
C -1.2387 0.0197 0.0710
C 0.1928 -0.1378 -0.5323
C 1.0958 1.1021 -0.3507
C 1.9807 1.3278 -1.5828
C 1.8895 1.1206 0.9454
C 2.3142 -0.0934 1.7068
C 3.3318 -0.6482 0.7838
C 3.3504 0.8148 1.0269
C -1.3164 0.1338 1.6317
C -1.3596 -1.4034 1.7000
C -1.8875 -1.3993 0.2520
H -3.7706 1.2270 0.6093
H -4.0383 0.1589 -0.7812
H -4.0159 1.9041 -1.0019
H -1.6672 2.0606 -0.5384
H -1.9249 0.8703 -1.8073
H 0.6805 -1.0293 -0.1254
H 0.0726 -0.3469 -1.6043
H 0.4565 1.9912 -0.3056
H 1.3629 1.5042 -2.4704
H 2.6228 0.4685 -1.7951
H 2.6239 2.2041 -1.4474
H 1.5539 1.9614 1.5511
H 2.4026 -0.1211 2.7824
H 4.1335 -1.2421 1.2123
H 3.0222 -1.0339 -0.1794
H 4.0223 1.2976 1.7205
H -2.2292 0.5970 2.0216
H -0.4746 0.5996 2.1459
H -0.3763 -1.8722 1.8162
H -2.0368 -1.8234 2.4484
H -2.9803 -1.4425 0.2152
H -1.5013 -2.1986 -0.3881


--link1--
%nproc=128
%mem=1024GB
%oldchk=00000095.chk
%chk=00000095_1.chk
#p m062x/def2tzvp geom=check em=gd3

CCC1(CC(C)C2C3CC32)CCC1

0 1


--link1--
%nproc=128
%mem=1024GB
%oldchk=00000095.chk
%chk=00000095_2.chk
#p m062x/def2tzvp scrf=solvent=water geom=check em=gd3

CCC1(CC(C)C2C3CC32)CCC1

0 1


