%nproc=128
%mem=1024GB
%chk=00000109.chk
#p opt freq b3lyp/6-31g* em=gd3bj

CCC1(CC)C2CCC3C2CC31

0 1
C 0.8605 -0.2782 -0.3529
C 0.5644 -1.5887 0.3797
C 1.2452 -1.6978 1.7840
C 0.9960 -0.3953 2.6035
C 1.8452 0.8418 2.2566
C 2.7135 -2.1847 1.6673
C 3.5975 -1.7733 2.8598
C 2.9956 -2.4996 4.0500
C 2.0739 -3.5055 3.4021
C 2.5211 -3.7105 1.9228
C 1.0430 -4.2353 1.7555
C 0.7588 -2.9532 2.6033
H 0.2889 0.5389 0.0977
H 0.5532 -0.3006 -1.4010
H 1.9300 -0.0423 -0.3271
H -0.5235 -1.6851 0.4767
H 0.8886 -2.4018 -0.2813
H -0.0647 -0.1220 2.5249
H 1.1317 -0.5976 3.6678
H 1.4555 1.4269 1.4249
H 1.8646 1.5257 3.1098
H 2.8751 0.6139 1.9806
H 3.1718 -1.9723 0.6947
H 3.6415 -0.7115 3.0911
H 4.6293 -2.0838 2.6859
H 3.7928 -2.9544 4.6477
H 2.4312 -1.8444 4.7197
H 1.9945 -4.4373 3.9816
H 3.3352 -4.3920 1.7097
H 0.8063 -5.1777 2.2811
H 0.6178 -4.3126 0.7600
H -0.1992 -2.9169 3.1113


--link1--
%nproc=128
%mem=1024GB
%oldchk=00000109.chk
%chk=00000109_1.chk
#p m062x/def2tzvp geom=check em=gd3

CCC1(CC)C2CCC3C2CC31

0 1


--link1--
%nproc=128
%mem=1024GB
%oldchk=00000109.chk
%chk=00000109_2.chk
#p m062x/def2tzvp scrf=solvent=water geom=check em=gd3

CCC1(CC)C2CCC3C2CC31

0 1


