%nproc=128
%mem=1024GB
%chk=00000002.chk
#p opt freq b3lyp/6-31g* em=gd3bj

CCC12C3CC(C(C)C)C1C32CC

0 1
C -2.0871 -1.7408 1.3184
C -2.1612 -0.2910 0.8676
C -0.8170 0.2181 0.5291
C 0.2080 0.9645 1.3228
C 1.5999 0.6772 0.8092
C 1.3294 0.5239 -0.7244
C 1.8606 -0.7834 -1.3394
C 1.1887 -2.0545 -0.8153
C 1.7555 -0.7450 -2.8678
C -0.1839 0.6834 -0.7532
C -0.6063 1.6849 0.2817
C -1.7436 2.6297 0.3283
C -1.8527 3.3452 1.6645
H -1.4314 -1.8485 2.1889
H -3.0819 -2.1070 1.5903
H -1.6950 -2.3810 0.5220
H -2.6126 0.2972 1.6742
H -2.8242 -0.2261 -0.0025
H 0.0929 1.1449 2.3760
H 2.2716 1.5192 1.0048
H 2.0176 -0.2227 1.2682
H 1.7850 1.3785 -1.2419
H 2.9285 -0.8497 -1.0920
H 0.1368 -2.1047 -1.1135
H 1.6853 -2.9425 -1.2222
H 1.2421 -2.1239 0.2747
H 2.2207 -1.6329 -3.3095
H 0.7130 -0.7129 -3.2005
H 2.2693 0.1334 -3.2724
H -0.6853 0.6249 -1.7024
H -2.6985 2.1520 0.0868
H -1.5843 3.3839 -0.4517
H -2.6651 4.0780 1.6385
H -2.0577 2.6400 2.4763
H -0.9238 3.8734 1.9042


--link1--
%nproc=128
%mem=1024GB
%oldchk=00000002.chk
%chk=00000002_1.chk
#p m062x/def2tzvp geom=check em=gd3

CCC12C3CC(C(C)C)C1C32CC

0 1


--link1--
%nproc=128
%mem=1024GB
%oldchk=00000002.chk
%chk=00000002_2.chk
#p m062x/def2tzvp scrf=solvent=water geom=check em=gd3

CCC12C3CC(C(C)C)C1C32CC

0 1


