%nproc=128
%mem=1024GB
%chk=00000038.chk
#p opt freq b3lyp/6-31g* em=gd3bj

CC(C)C1CC1CC1CCC2CC12

0 1
C 2.7434 -1.1875 -1.3874
C 1.9963 -0.1473 -2.2204
C 2.9745 0.5841 -3.1436
C 1.1881 0.8565 -1.4314
C 1.7696 1.6223 -0.2668
C 0.6830 0.6028 -0.0266
C -0.6950 1.0558 0.3696
C -1.7766 0.0585 -0.0688
C -1.8389 -1.2133 0.8048
C -2.8818 -0.9175 1.8875
C -3.8609 -0.0068 1.2082
C -3.6589 1.4802 1.1847
C -3.1759 0.6312 0.0343
H 3.3033 -1.8711 -2.0352
H 2.0488 -1.7965 -0.8003
H 3.4561 -0.7245 -0.6977
H 1.2878 -0.6934 -2.8568
H 3.5079 -0.1221 -3.7885
H 2.4454 1.2946 -3.7882
H 3.7168 1.1485 -2.5684
H 0.5347 1.4173 -2.0968
H 1.5231 2.6755 -0.1837
H 2.7705 1.3868 0.0752
H 0.9778 -0.2945 0.5026
H -0.9064 2.0358 -0.0778
H -0.7153 1.1995 1.4564
H -1.5876 -0.2383 -1.1083
H -0.8769 -1.5151 1.2273
H -2.2022 -2.0454 0.1875
H -2.4203 -0.4187 2.7469
H -3.3573 -1.8382 2.2391
H -4.8474 -0.4256 1.0696
H -2.9423 1.9177 1.8689
H -4.5299 2.1050 1.0170
H -3.7007 0.6773 -0.9109


--link1--
%nproc=128
%mem=1024GB
%oldchk=00000038.chk
%chk=00000038_1.chk
#p m062x/def2tzvp geom=check em=gd3

CC(C)C1CC1CC1CCC2CC12

0 1


--link1--
%nproc=128
%mem=1024GB
%oldchk=00000038.chk
%chk=00000038_2.chk
#p m062x/def2tzvp scrf=solvent=water geom=check em=gd3

CC(C)C1CC1CC1CCC2CC12

0 1


