%nproc=128
%mem=1024GB
%chk=00000032.chk
#p opt freq b3lyp/6-31g* em=gd3bj

CCC12CC1(CC)C2C1CC1C

0 1
C -2.2225 0.9936 1.5207
C -1.2848 -0.1739 1.2599
C -0.0154 0.3117 0.6526
C 1.2968 0.4411 1.3459
C 1.1315 -0.6715 0.3698
C 0.9753 -2.1147 0.7022
C 2.1938 -2.8956 0.2378
C 0.4490 0.0557 -0.7488
C 1.1620 1.1003 -1.6101
C 1.0055 2.5915 -1.4019
C 0.4430 1.9533 -2.6375
C -1.0334 1.8745 -2.8279
H -2.4627 1.5190 0.5905
H -1.7666 1.7168 2.2051
H -3.1574 0.6408 1.9668
H -1.7842 -0.8873 0.5945
H -1.0914 -0.6908 2.2068
H 1.9476 1.2691 1.0845
H 1.3482 0.1990 2.4022
H 0.0834 -2.5326 0.2216
H 0.8576 -2.2514 1.7834
H 3.1042 -2.5243 0.7202
H 2.0841 -3.9566 0.4820
H 2.3279 -2.8044 -0.8453
H -0.2101 -0.5746 -1.3503
H 2.1597 0.7795 -1.9166
H 0.3195 2.9335 -0.6352
H 1.8906 3.2088 -1.5040
H 0.9544 2.1318 -3.5772
H -1.3952 2.7802 -3.3247
H -1.5725 1.7728 -1.8809
H -1.2860 1.0169 -3.4593


--link1--
%nproc=128
%mem=1024GB
%oldchk=00000032.chk
%chk=00000032_1.chk
#p m062x/def2tzvp geom=check em=gd3

CCC12CC1(CC)C2C1CC1C

0 1


--link1--
%nproc=128
%mem=1024GB
%oldchk=00000032.chk
%chk=00000032_2.chk
#p m062x/def2tzvp scrf=solvent=water geom=check em=gd3

CCC12CC1(CC)C2C1CC1C

0 1


