%nproc=128
%mem=1024GB
%chk=00000025.chk
#p opt freq b3lyp/6-31g* em=gd3bj

CC(CCC1CC1)C1CCC2CC21

0 1
C 1.4843 -1.0072 0.9957
C 0.4889 0.0266 0.4501
C 1.1380 1.4287 0.3546
C 1.6670 2.0078 1.6750
C 0.5896 2.2150 2.6984
C -0.3581 3.3806 2.5876
C 0.6846 3.3622 3.6708
C -0.1163 -0.5001 -0.8727
C 0.8467 -0.5869 -2.0945
C -0.0506 -0.2420 -3.3162
C -1.4256 -0.4597 -2.7849
C -2.5665 0.1701 -2.0553
C -1.2311 0.3204 -1.4460
H 1.7766 -0.7758 2.0242
H 1.0407 -2.0087 1.0112
H 2.3915 -1.0485 0.3838
H -0.3434 0.0902 1.1630
H 0.4149 2.1431 -0.0522
H 1.9788 1.4004 -0.3471
H 2.1544 2.9655 1.4503
H 2.4484 1.3663 2.0955
H 0.2035 1.2791 3.0869
H -1.3918 3.2201 2.8725
H -0.2284 4.0824 1.7715
H 1.5157 4.0530 3.5860
H 0.3547 3.1919 4.6895
H -0.5096 -1.5074 -0.6674
H 1.2510 -1.6021 -2.1769
H 1.6919 0.1042 -2.0512
H 0.1757 -0.8979 -4.1628
H 0.0993 0.7950 -3.6391
H -1.5780 -1.5436 -2.8023
H -3.2805 -0.4791 -1.5592
H -3.0291 1.0444 -2.5014
H -0.9178 1.3647 -1.4840


--link1--
%nproc=128
%mem=1024GB
%oldchk=00000025.chk
%chk=00000025_1.chk
#p m062x/def2tzvp geom=check em=gd3

CC(CCC1CC1)C1CCC2CC21

0 1


--link1--
%nproc=128
%mem=1024GB
%oldchk=00000025.chk
%chk=00000025_2.chk
#p m062x/def2tzvp scrf=solvent=water geom=check em=gd3

CC(CCC1CC1)C1CCC2CC21

0 1


