%nproc=128
%mem=1024GB
%chk=00000044.chk
#p opt freq b3lyp/6-31g* em=gd3bj

CC(C)CC1C2C3CC(C(C)C)C132

0 1
C -2.4632 -2.9651 0.6841
C -0.9489 -2.7648 0.5938
C -0.3266 -3.8879 -0.2390
C -0.5853 -1.3937 -0.0148
C -0.9902 -0.2451 0.8716
C -2.1999 0.5256 0.5169
C -1.7735 1.3516 -0.6009
C -0.5746 1.3871 -1.4677
C 0.1781 1.8969 -0.2239
C 1.6413 1.4861 -0.0385
C 2.1197 1.8708 1.3612
C 2.5041 2.1738 -1.0972
C -0.8686 1.2434 0.6244
H -2.6998 -3.9582 1.0811
H -2.9357 -2.8737 -0.2998
H -2.9220 -2.2294 1.3519
H -0.5346 -2.8290 1.6080
H 0.7629 -3.7848 -0.2790
H -0.5523 -4.8668 0.1971
H -0.7064 -3.8786 -1.2664
H -1.0476 -1.3245 -1.0059
H 0.4991 -1.3581 -0.1572
H -0.8508 -0.5180 1.9156
H -2.9355 0.8361 1.2424
H -2.3472 2.2623 -0.7549
H -0.6142 2.1117 -2.2891
H -0.2212 0.4449 -1.8931
H 0.0925 2.9925 -0.1188
H 1.7600 0.4056 -0.1587
H 3.1721 1.6024 1.5008
H 2.0165 2.9474 1.5363
H 1.5383 1.3533 2.1314
H 3.5578 1.8999 -0.9796
H 2.1924 1.8821 -2.1057
H 2.4257 3.2644 -1.0293


--link1--
%nproc=128
%mem=1024GB
%oldchk=00000044.chk
%chk=00000044_1.chk
#p m062x/def2tzvp geom=check em=gd3

CC(C)CC1C2C3CC(C(C)C)C132

0 1


--link1--
%nproc=128
%mem=1024GB
%oldchk=00000044.chk
%chk=00000044_2.chk
#p m062x/def2tzvp scrf=solvent=water geom=check em=gd3

CC(C)CC1C2C3CC(C(C)C)C132

0 1


