%nproc=128
%mem=1024GB
%chk=00000103.chk
#p opt freq b3lyp/6-31g* em=gd3bj

CCC12CCC3C(C1)CC32CC

0 1
C -2.3911 2.8193 -0.2367
C -2.5289 1.4611 -0.9116
C -1.3191 0.5327 -0.8180
C 0.0765 1.1748 -0.8831
C 1.0193 0.0151 -0.5476
C 0.0955 -1.0601 0.0182
C -0.8914 -1.7364 -1.0083
C -1.3947 -0.5976 -1.8817
C -1.8981 -1.7505 0.1721
C -1.2359 -0.3621 0.4643
C -1.3769 0.3022 1.8176
C -1.0375 -0.6260 2.9736
H -2.1774 2.7337 0.8302
H -1.6005 3.4152 -0.7031
H -3.3257 3.3805 -0.3415
H -2.7430 1.6564 -1.9705
H -3.4141 0.9559 -0.5060
H 0.2999 1.6100 -1.8625
H 0.1981 1.9630 -0.1323
H 1.7618 0.3315 0.1924
H 1.5531 -0.3467 -1.4324
H 0.5710 -1.7554 0.7182
H -0.6199 -2.6868 -1.4649
H -2.4132 -0.7905 -2.2378
H -0.7550 -0.4119 -2.7506
H -2.9617 -1.7362 -0.0843
H -1.7291 -2.5404 0.9123
H -0.7238 1.1785 1.8874
H -2.4060 0.6533 1.9524
H -1.1380 -0.0927 3.9245
H -1.7086 -1.4894 3.0049
H -0.0097 -0.9941 2.9033


--link1--
%nproc=128
%mem=1024GB
%oldchk=00000103.chk
%chk=00000103_1.chk
#p m062x/def2tzvp geom=check em=gd3

CCC12CCC3C(C1)CC32CC

0 1


--link1--
%nproc=128
%mem=1024GB
%oldchk=00000103.chk
%chk=00000103_2.chk
#p m062x/def2tzvp scrf=solvent=water geom=check em=gd3

CCC12CCC3C(C1)CC32CC

0 1


