%nproc=128
%mem=1024GB
%chk=00000079.chk
#p opt freq b3lyp/6-31g* em=gd3bj

CC(C)C1C(CCC2CC2)C2CC21

0 1
C 2.6239 0.2644 2.3016
C 2.4338 0.7526 0.8641
C 3.5233 0.1653 -0.0316
C 1.0038 0.4264 0.4020
C 0.5865 -1.0380 0.0319
C -0.2726 -1.8499 1.0056
C -1.6685 -1.2968 1.2769
C -2.7321 -1.5995 0.2545
C -3.3939 -2.9577 0.2698
C -2.5816 -2.5415 -0.9191
C -0.0040 -0.5202 -1.2383
C -0.8132 0.7213 -1.4684
C 0.5903 0.8308 -0.9744
H 3.6108 0.5480 2.6822
H 2.5353 -0.8251 2.3680
H 1.8695 0.6997 2.9657
H 2.5508 1.8441 0.8644
H 3.5203 -0.9288 -0.0177
H 4.5120 0.4919 0.3098
H 3.4155 0.4875 -1.0709
H 0.3099 0.8963 1.1170
H 1.4563 -1.6676 -0.2088
H 0.2641 -1.8876 1.9624
H -0.3315 -2.8904 0.6677
H -1.6244 -0.2125 1.4246
H -2.0153 -1.7058 2.2350
H -3.3940 -0.7476 0.1252
H -2.9868 -3.7302 0.9124
H -4.4720 -2.9968 0.1615
H -1.6467 -3.0564 -1.0967
H -3.1094 -2.2881 -1.8327
H 0.3406 -1.0838 -2.0967
H -1.0196 1.0087 -2.4931
H -1.6157 0.9614 -0.7821
H 1.3821 1.1799 -1.6199


--link1--
%nproc=128
%mem=1024GB
%oldchk=00000079.chk
%chk=00000079_1.chk
#p m062x/def2tzvp geom=check em=gd3

CC(C)C1C(CCC2CC2)C2CC21

0 1


--link1--
%nproc=128
%mem=1024GB
%oldchk=00000079.chk
%chk=00000079_2.chk
#p m062x/def2tzvp scrf=solvent=water geom=check em=gd3

CC(C)C1C(CCC2CC2)C2CC21

0 1


