%nproc=128
%mem=1024GB
%chk=00000083.chk
#p opt freq b3lyp/6-31g* em=gd3bj

CCC12C(C)C13C(C)C(C(C)C)C23

0 1
C 0.4312 -2.8816 3.0101
C 0.1696 -2.6686 1.5268
C -0.7311 -1.4956 1.3286
C -1.9681 -1.6222 0.5279
C -3.2477 -1.0417 1.0302
C -0.9491 -0.7655 -0.0465
C 0.2256 -0.6951 -0.9196
C -0.0402 -0.2924 -2.3593
C 0.6608 0.4786 0.0472
C 2.1257 0.7520 0.4041
C 2.2019 1.9012 1.4128
C 2.8732 -0.4591 0.9405
C -0.2969 -0.0910 1.0793
H 0.9102 -2.0042 3.4566
H -0.5047 -3.0616 3.5497
H 1.0858 -3.7453 3.1624
H -0.2965 -3.5765 1.1258
H 1.1236 -2.5605 1.0100
H -2.1634 -2.5599 0.0174
H -3.7261 -1.7382 1.7262
H -3.9355 -0.8715 0.1957
H -3.1063 -0.0893 1.5509
H 0.8815 -1.5715 -0.9050
H 0.8974 -0.0416 -2.8658
H -0.7029 0.5772 -2.4243
H -0.5090 -1.1156 -2.9083
H 0.2466 1.4398 -0.3128
H 2.6381 1.0787 -0.5100
H 1.7111 1.6379 2.3561
H 1.7093 2.7981 1.0221
H 3.2432 2.1596 1.6324
H 3.9209 -0.2065 1.1389
H 2.4408 -0.8156 1.8792
H 2.8714 -1.2808 0.2192
H -0.8093 0.7097 1.5978


--link1--
%nproc=128
%mem=1024GB
%oldchk=00000083.chk
%chk=00000083_1.chk
#p m062x/def2tzvp geom=check em=gd3

CCC12C(C)C13C(C)C(C(C)C)C23

0 1


--link1--
%nproc=128
%mem=1024GB
%oldchk=00000083.chk
%chk=00000083_2.chk
#p m062x/def2tzvp scrf=solvent=water geom=check em=gd3

CCC12C(C)C13C(C)C(C(C)C)C23

0 1


