%nproc=128
%mem=1024GB
%chk=00000108.chk
#p opt freq b3lyp/6-31g* em=gd3bj

CC(C)C1C(C)C1C(C)C1C2CC21

0 1
C 0.8909 -2.3388 1.0078
C -0.4870 -1.6731 0.9510
C -1.0281 -1.4728 2.3654
C -0.4195 -0.4275 0.0973
C 0.2427 0.8425 0.5828
C 1.2301 1.5390 -0.2859
C -1.2641 0.8145 0.3536
C -2.0263 1.5326 -0.7403
C -1.8157 3.0461 -0.6663
C -1.8066 1.0283 -2.1455
C -2.9063 1.1474 -3.1508
C -2.4595 0.0635 -4.0668
C -2.4892 -0.2181 -2.6066
H 1.6215 -1.6971 1.5124
H 1.2685 -2.5405 -0.0006
H 0.8444 -3.2912 1.5461
H -1.1678 -2.3678 0.4420
H -1.0388 -2.4220 2.9125
H -2.0575 -1.1013 2.3453
H -0.4220 -0.7651 2.9396
H -0.2206 -0.7082 -0.9338
H 0.5664 0.8925 1.6182
H 2.2278 1.1206 -0.1165
H 1.2708 2.6033 -0.0354
H 1.0135 1.4412 -1.3510
H -1.8499 0.8658 1.2686
H -3.0870 1.3644 -0.5027
H -0.8078 3.3319 -0.9809
H -2.5180 3.5667 -1.3266
H -1.9698 3.4162 0.3528
H -0.7986 1.2220 -2.4924
H -3.9348 1.3868 -2.9315
H -3.2057 -0.4144 -4.6925
H -1.4984 0.1585 -4.5623
H -3.2876 -0.7236 -2.0871


--link1--
%nproc=128
%mem=1024GB
%oldchk=00000108.chk
%chk=00000108_1.chk
#p m062x/def2tzvp geom=check em=gd3

CC(C)C1C(C)C1C(C)C1C2CC21

0 1


--link1--
%nproc=128
%mem=1024GB
%oldchk=00000108.chk
%chk=00000108_2.chk
#p m062x/def2tzvp scrf=solvent=water geom=check em=gd3

CC(C)C1C(C)C1C(C)C1C2CC21

0 1


