%nproc=128
%mem=1024GB
%chk=00000041.chk
#p opt freq b3lyp/6-31g* em=gd3bj

CCC(C)C1CC1(CC)C1C2CC21

0 1
C 2.3911 1.3739 2.2973
C 1.0382 1.6311 1.6496
C 0.8923 0.9806 0.2605
C 1.7774 1.6889 -0.7734
C -0.5533 1.0356 -0.1837
C -0.9880 0.1961 -1.3473
C -1.5687 -0.1000 0.0392
C -3.0107 0.3224 0.3442
C -3.7083 1.2023 -0.6819
C -1.1660 -1.4642 0.6797
C -0.3477 -1.6241 1.9199
C -1.3165 -1.1188 2.9235
C -1.8102 -2.0629 1.8905
H 3.2034 1.8434 1.7354
H 2.4064 1.7894 3.3100
H 2.5937 0.3007 2.3699
H 0.8702 2.7132 1.5790
H 0.2615 1.2500 2.3202
H 1.2234 -0.0628 0.3141
H 1.6513 1.2448 -1.7667
H 2.8373 1.6112 -0.5140
H 1.5204 2.7509 -0.8542
H -0.9271 2.0552 -0.1514
H -1.5864 0.6716 -2.1136
H -0.2813 -0.5156 -1.7637
H -3.0203 0.8443 1.3079
H -3.6254 -0.5777 0.4661
H -3.8145 0.6849 -1.6405
H -4.7147 1.4557 -0.3324
H -3.1706 2.1398 -0.8501
H -0.9438 -2.2064 -0.0931
H 0.3402 -2.4369 2.0912
H -1.6214 -0.0801 2.8866
H -1.2271 -1.4814 3.9423
H -1.9408 -3.1224 2.0459


--link1--
%nproc=128
%mem=1024GB
%oldchk=00000041.chk
%chk=00000041_1.chk
#p m062x/def2tzvp geom=check em=gd3

CCC(C)C1CC1(CC)C1C2CC21

0 1


--link1--
%nproc=128
%mem=1024GB
%oldchk=00000041.chk
%chk=00000041_2.chk
#p m062x/def2tzvp scrf=solvent=water geom=check em=gd3

CCC(C)C1CC1(CC)C1C2CC21

0 1


