%nproc=128
%mem=1024GB
%chk=00000026.chk
#p opt freq b3lyp/6-31g* em=gd3bj

CC(C)C1C2C(C)C12CC1CC1C

0 1
C 1.8742 2.2863 -1.5201
C 1.2168 1.0220 -2.0626
C 0.8919 1.2292 -3.5496
C -0.0233 0.5263 -1.3509
C -1.0866 1.4628 -0.8824
C -1.8135 0.5789 0.0707
C -2.6061 -0.6087 -0.3623
C -0.3165 0.5763 0.1255
C 0.4405 1.2311 1.2340
C 1.6185 0.4550 1.7547
C 2.2152 -0.7548 1.0693
C 1.4111 -0.9283 2.3301
C 2.0822 -1.3207 3.6015
H 2.3321 2.1074 -0.5448
H 2.6843 2.6157 -2.1810
H 1.1667 3.1155 -1.4286
H 1.9621 0.2182 -2.0052
H 0.4848 0.3142 -3.9936
H 0.1480 2.0223 -3.6842
H 1.7894 1.5022 -4.1148
H -0.3328 -0.3887 -1.8518
H -0.9613 2.5229 -0.7327
H -2.3406 1.0783 0.8800
H -2.1569 -1.1754 -1.1810
H -2.7342 -1.2936 0.4824
H -3.6017 -0.2897 -0.6875
H -0.2378 1.3840 2.0838
H 0.7658 2.2373 0.9525
H 2.3015 1.1131 2.2838
H 1.7815 -1.1301 0.1509
H 3.2918 -0.8776 1.1171
H 0.4307 -1.3838 2.2392
H 1.4808 -1.0003 4.4579
H 2.1915 -2.4086 3.6491
H 3.0772 -0.8739 3.6976


--link1--
%nproc=128
%mem=1024GB
%oldchk=00000026.chk
%chk=00000026_1.chk
#p m062x/def2tzvp geom=check em=gd3

CC(C)C1C2C(C)C12CC1CC1C

0 1


--link1--
%nproc=128
%mem=1024GB
%oldchk=00000026.chk
%chk=00000026_2.chk
#p m062x/def2tzvp scrf=solvent=water geom=check em=gd3

CC(C)C1C2C(C)C12CC1CC1C

0 1


