%nproc=128
%mem=1024GB
%chk=00000053.chk
#p opt freq b3lyp/6-31g* em=gd3bj

CC(C)C1C2CC21CC(C)C1CC1

0 1
C -1.3800 3.3269 -3.1995
C -0.7673 1.9954 -3.6371
C -1.5839 1.3853 -4.7774
C -0.7101 1.0408 -2.4682
C 0.2531 -0.0966 -2.4209
C 1.5391 0.6236 -2.2449
C 0.3794 1.1069 -1.4544
C 0.2270 1.0116 0.0286
C 0.0482 -0.3820 0.6585
C -1.4000 -0.8734 0.5505
C 0.4383 -0.3320 2.1228
C 0.8989 -1.5821 2.8291
C 1.8827 -0.4866 2.5274
H -2.3987 3.1917 -2.8195
H -1.4189 4.0327 -4.0358
H -0.7866 3.7828 -2.3996
H 0.2357 2.2048 -4.0244
H -1.6249 2.0644 -5.6354
H -2.6113 1.1712 -4.4625
H -1.1377 0.4430 -5.1131
H -1.7130 0.8390 -2.0999
H 0.0366 -1.0545 -1.9846
H 2.3382 0.1063 -1.7222
H 1.9219 1.2352 -3.0537
H -0.6006 1.6635 0.3374
H 1.1262 1.4768 0.4546
H 0.7012 -1.1032 0.1529
H -1.5091 -1.8574 1.0199
H -1.7266 -0.9667 -0.4876
H -2.0886 -0.1909 1.0612
H -0.1665 0.3683 2.6906
H 0.9768 -2.5032 2.2628
H 0.5945 -1.7222 3.8603
H 2.6235 -0.6683 1.7570
H 2.2439 0.1142 3.3545


--link1--
%nproc=128
%mem=1024GB
%oldchk=00000053.chk
%chk=00000053_1.chk
#p m062x/def2tzvp geom=check em=gd3

CC(C)C1C2CC21CC(C)C1CC1

0 1


--link1--
%nproc=128
%mem=1024GB
%oldchk=00000053.chk
%chk=00000053_2.chk
#p m062x/def2tzvp scrf=solvent=water geom=check em=gd3

CC(C)C1C2CC21CC(C)C1CC1

0 1


