%nproc=128
%mem=1024GB
%chk=00000114.chk
#p opt freq b3lyp/6-31g* em=gd3bj

CC(C)C1C(CC2CC2)CC2CC21

0 1
C -0.7324 -2.2036 -1.2341
C -0.0211 -1.6506 0.0042
C 1.1603 -2.5648 0.3618
C 0.4376 -0.1699 -0.1077
C -0.6834 0.9207 -0.1888
C -2.0094 0.6583 0.5276
C -1.8584 0.6955 2.0229
C -3.0500 1.0129 2.8881
C -1.9276 2.0059 2.7631
C -0.8613 1.2023 -1.6965
C 0.4795 0.9154 -2.3067
C 1.7527 1.4722 -1.7251
C 1.2761 0.0890 -1.3522
H -1.0441 -3.2402 -1.0626
H -1.6346 -1.6357 -1.4715
H -0.0830 -2.2003 -2.1150
H -0.7196 -1.7310 0.8446
H 1.6715 -2.2073 1.2619
H 0.8097 -3.5828 0.5651
H 1.8943 -2.6241 -0.4474
H 1.0504 0.0559 0.7754
H -0.2566 1.8366 0.2485
H -2.4447 -0.3008 0.2318
H -2.7329 1.4236 0.2167
H -1.1692 -0.0545 2.3937
H -3.9936 1.2515 2.4106
H -3.1526 0.4781 3.8257
H -1.2709 2.1412 3.6152
H -2.1135 2.9137 2.2004
H -1.6197 0.5492 -2.1399
H -1.1632 2.2398 -1.8728
H 0.4478 0.6506 -3.3537
H 1.6978 2.2658 -0.9898
H 2.6140 1.5488 -2.3803
H 1.8589 -0.7464 -1.7114


--link1--
%nproc=128
%mem=1024GB
%oldchk=00000114.chk
%chk=00000114_1.chk
#p m062x/def2tzvp geom=check em=gd3

CC(C)C1C(CC2CC2)CC2CC21

0 1


--link1--
%nproc=128
%mem=1024GB
%oldchk=00000114.chk
%chk=00000114_2.chk
#p m062x/def2tzvp scrf=solvent=water geom=check em=gd3

CC(C)C1C(CC2CC2)CC2CC21

0 1


